\ENCODING=ISO-8859-1
\Problem name: bSARP

Maximize
 obj: 7.856 x(0,3,0) + 8.425 x(0,4,0) + 8.136 x(0,5,0) + 8.776 x(0,13,0)
      + 12.414 x(1,3,0) + 12.029 x(1,5,0) + 13.573 x(1,13,0) + 13.505 x(2,3,0)
      + 13.488 x(2,4,0) + 14.565 x(2,13,0) + 8.158 x(3,13,0) + 12.535 x(4,13,0)
      + 13.492 x(5,13,0) + 7.851 x(6,0,0) + 7.971 x(6,1,0) + 7.677 x(6,2,0)
      + 8.219 x(6,3,0) + 7.971 x(6,4,0) + 7.677 x(6,5,0) + 7.886 x(6,9,0)
      + 7.971 x(6,10,0) + 7.677 x(6,11,0) + 8.89 x(6,13,0) + 11.909 x(7,0,0)
      + 11.726 x(7,2,0) + 12.111 x(7,3,0) + 11.726 x(7,5,0) + 11.798 x(7,9,0)
      + 11.726 x(7,11,0) + 13.27 x(7,13,0) + 12.748 x(8,0,0) + 12.932 x(8,1,0)
      + 12.949 x(8,3,0) + 12.932 x(8,4,0) + 12.636 x(8,9,0) + 12.932 x(8,10,0)
      + 14.009 x(8,13,0) + 7.159 x(9,0,0) + 6.735 x(9,1,0) + 7.325 x(9,2,0)
      + 7.263 x(9,3,0) + 6.735 x(9,4,0) + 7.325 x(9,5,0) + 7.93 x(9,13,0)
      + 10.234 x(10,0,0) + 10.436 x(10,3,0) + 10.051 x(10,5,0)
      + 11.595 x(10,13,0) + 11.561 x(11,0,0) + 11.762 x(11,3,0)
      + 11.745 x(11,4,0) + 12.822 x(11,13,0) - 1.463 x(12,0,0)
      - 1.459 x(12,1,0) - 1.669 x(12,2,0) - 1.129 x(12,3,0) - 1.459 x(12,4,0)
      - 1.669 x(12,5,0) - 0.397 x(12,6,0) - 1.459 x(12,7,0) - 1.669 x(12,8,0)
      - 1.366 x(12,9,0) - 1.459 x(12,10,0) - 1.669 x(12,11,0) + id139
Subject To
 Constraint1_0:    x(0,3,0) + x(0,4,0) + x(0,5,0) + x(0,13,0) + x(1,3,0)
                   + x(1,5,0) + x(1,13,0) + x(2,3,0) + x(2,4,0) + x(2,13,0)
                    = 1
 Constraint1_1:    x(3,13,0) + x(4,13,0) + x(5,13,0)  = 1
 Constraint1_2:    x(6,0,0) + x(6,1,0) + x(6,2,0) + x(6,3,0) + x(6,4,0)
                   + x(6,5,0) + x(6,9,0) + x(6,10,0) + x(6,11,0) + x(6,13,0)
                   + x(7,0,0) + x(7,2,0) + x(7,3,0) + x(7,5,0) + x(7,9,0)
                   + x(7,11,0) + x(7,13,0) + x(8,0,0) + x(8,1,0) + x(8,3,0)
                   + x(8,4,0) + x(8,9,0) + x(8,10,0) + x(8,13,0)  = 1
 Constraint1_3:    x(9,0,0) + x(9,1,0) + x(9,2,0) + x(9,3,0) + x(9,4,0)
                   + x(9,5,0) + x(9,13,0) + x(10,0,0) + x(10,3,0) + x(10,5,0)
                   + x(10,13,0) + x(11,0,0) + x(11,3,0) + x(11,4,0)
                   + x(11,13,0)  = 1
 Constraint2_0:    x(6,0,0) + x(6,1,0) + x(6,2,0) + x(7,0,0) + x(7,2,0)
                   + x(8,0,0) + x(8,1,0) + x(9,0,0) + x(9,1,0) + x(9,2,0)
                   + x(10,0,0) + x(11,0,0) + x(12,0,0) + x(12,1,0) + x(12,2,0)
                    = 1
 Constraint2_1:    x(0,3,0) + x(0,4,0) + x(0,5,0) + x(1,3,0) + x(1,5,0)
                   + x(2,3,0) + x(2,4,0) + x(6,3,0) + x(6,4,0) + x(6,5,0)
                   + x(7,3,0) + x(7,5,0) + x(8,3,0) + x(8,4,0) + x(9,3,0)
                   + x(9,4,0) + x(9,5,0) + x(10,3,0) + x(10,5,0) + x(11,3,0)
                   + x(11,4,0) + x(12,3,0) + x(12,4,0) + x(12,5,0)  = 1
 Constraint2_2:    x(12,6,0) + x(12,7,0) + x(12,8,0)  = 1
 Constraint2_3:    x(6,9,0) + x(6,10,0) + x(6,11,0) + x(7,9,0) + x(7,11,0)
                   + x(8,9,0) + x(8,10,0) + x(12,9,0) + x(12,10,0) + x(12,11,0)
                    = 1
 Constraint3_0:    x(12,0,0) + x(12,1,0) + x(12,2,0) + x(12,3,0) + x(12,4,0)
                   + x(12,5,0) + x(12,6,0) + x(12,7,0) + x(12,8,0) + x(12,9,0)
                   + x(12,10,0) + x(12,11,0)  = 1
 Constraint4_0:    x(0,13,0) + x(1,13,0) + x(2,13,0) + x(3,13,0) + x(4,13,0)
                   + x(5,13,0) + x(6,13,0) + x(7,13,0) + x(8,13,0) + x(9,13,0)
                   + x(10,13,0) + x(11,13,0)  = 1
 Constraint5_4:    x(1,3,0) + x(1,5,0) + x(1,13,0) + x(4,13,0) + x(7,0,0)
                   + x(7,2,0) + x(7,3,0) + x(7,5,0) + x(7,9,0) + x(7,11,0)
                   + x(7,13,0) + x(10,0,0) + x(10,3,0) + x(10,5,0) + x(10,13,0)
                   <= 1
 Constraint5_5:    x(2,3,0) + x(2,4,0) + x(2,13,0) + x(5,13,0) + x(8,0,0)
                   + x(8,1,0) + x(8,3,0) + x(8,4,0) + x(8,9,0) + x(8,10,0)
                   + x(8,13,0) + x(11,0,0) + x(11,3,0) + x(11,4,0) + x(11,13,0)
                   <= 1
 Constraint6_0_0:  x(0,3,0) + x(0,4,0) + x(0,5,0) + x(0,13,0) - x(6,0,0)
                   - x(7,0,0) - x(8,0,0) - x(9,0,0) - x(10,0,0) - x(11,0,0)
                   - x(12,0,0)  = 0
 Constraint6_1_0:  x(1,3,0) + x(1,5,0) + x(1,13,0) - x(6,1,0) - x(8,1,0)
                   - x(9,1,0) - x(12,1,0)  = 0
 Constraint6_2_0:  x(2,3,0) + x(2,4,0) + x(2,13,0) - x(6,2,0) - x(7,2,0)
                   - x(9,2,0) - x(12,2,0)  = 0
 Constraint6_3_0:  - x(0,3,0) - x(1,3,0) - x(2,3,0) + x(3,13,0) - x(6,3,0)
                   - x(7,3,0) - x(8,3,0) - x(9,3,0) - x(10,3,0) - x(11,3,0)
                   - x(12,3,0)  = 0
 Constraint6_4_0:  - x(0,4,0) - x(2,4,0) + x(4,13,0) - x(6,4,0) - x(8,4,0)
                   - x(9,4,0) - x(11,4,0) - x(12,4,0)  = 0
 Constraint6_5_0:  - x(0,5,0) - x(1,5,0) + x(5,13,0) - x(6,5,0) - x(7,5,0)
                   - x(9,5,0) - x(10,5,0) - x(12,5,0)  = 0
 Constraint6_6_0:  x(6,0,0) + x(6,1,0) + x(6,2,0) + x(6,3,0) + x(6,4,0)
                   + x(6,5,0) + x(6,9,0) + x(6,10,0) + x(6,11,0) + x(6,13,0)
                   - x(12,6,0)  = 0
 Constraint6_7_0:  x(7,0,0) + x(7,2,0) + x(7,3,0) + x(7,5,0) + x(7,9,0)
                   + x(7,11,0) + x(7,13,0) - x(12,7,0)  = 0
 Constraint6_8_0:  x(8,0,0) + x(8,1,0) + x(8,3,0) + x(8,4,0) + x(8,9,0)
                   + x(8,10,0) + x(8,13,0) - x(12,8,0)  = 0
 Constraint6_9_0:  - x(6,9,0) - x(7,9,0) - x(8,9,0) + x(9,0,0) + x(9,1,0)
                   + x(9,2,0) + x(9,3,0) + x(9,4,0) + x(9,5,0) + x(9,13,0)
                   - x(12,9,0)  = 0
 Constraint6_10_0: - x(6,10,0) - x(8,10,0) + x(10,0,0) + x(10,3,0) + x(10,5,0)
                   + x(10,13,0) - x(12,10,0)  = 0
 Constraint6_11_0: - x(6,11,0) - x(7,11,0) + x(11,0,0) + x(11,3,0) + x(11,4,0)
                   + x(11,13,0) - x(12,11,0)  = 0
Bounds
 0 <= x(0,3,0) <= 1
 0 <= x(0,4,0) <= 1
 0 <= x(0,5,0) <= 1
 0 <= x(0,13,0) <= 1
 0 <= x(1,3,0) <= 1
 0 <= x(1,5,0) <= 1
 0 <= x(1,13,0) <= 1
 0 <= x(2,3,0) <= 1
 0 <= x(2,4,0) <= 1
 0 <= x(2,13,0) <= 1
 0 <= x(3,13,0) <= 1
 0 <= x(4,13,0) <= 1
 0 <= x(5,13,0) <= 1
 0 <= x(6,0,0) <= 1
 0 <= x(6,1,0) <= 1
 0 <= x(6,2,0) <= 1
 0 <= x(6,3,0) <= 1
 0 <= x(6,4,0) <= 1
 0 <= x(6,5,0) <= 1
 0 <= x(6,9,0) <= 1
 0 <= x(6,10,0) <= 1
 0 <= x(6,11,0) <= 1
 0 <= x(6,13,0) <= 1
 0 <= x(7,0,0) <= 1
 0 <= x(7,2,0) <= 1
 0 <= x(7,3,0) <= 1
 0 <= x(7,5,0) <= 1
 0 <= x(7,9,0) <= 1
 0 <= x(7,11,0) <= 1
 0 <= x(7,13,0) <= 1
 0 <= x(8,0,0) <= 1
 0 <= x(8,1,0) <= 1
 0 <= x(8,3,0) <= 1
 0 <= x(8,4,0) <= 1
 0 <= x(8,9,0) <= 1
 0 <= x(8,10,0) <= 1
 0 <= x(8,13,0) <= 1
 0 <= x(9,0,0) <= 1
 0 <= x(9,1,0) <= 1
 0 <= x(9,2,0) <= 1
 0 <= x(9,3,0) <= 1
 0 <= x(9,4,0) <= 1
 0 <= x(9,5,0) <= 1
 0 <= x(9,13,0) <= 1
 0 <= x(10,0,0) <= 1
 0 <= x(10,3,0) <= 1
 0 <= x(10,5,0) <= 1
 0 <= x(10,13,0) <= 1
 0 <= x(11,0,0) <= 1
 0 <= x(11,3,0) <= 1
 0 <= x(11,4,0) <= 1
 0 <= x(11,13,0) <= 1
 0 <= x(12,0,0) <= 1
 0 <= x(12,1,0) <= 1
 0 <= x(12,2,0) <= 1
 0 <= x(12,3,0) <= 1
 0 <= x(12,4,0) <= 1
 0 <= x(12,5,0) <= 1
 0 <= x(12,6,0) <= 1
 0 <= x(12,7,0) <= 1
 0 <= x(12,8,0) <= 1
 0 <= x(12,9,0) <= 1
 0 <= x(12,10,0) <= 1
 0 <= x(12,11,0) <= 1
      id139 = 0
Binaries
 x(0,3,0)  x(0,4,0)  x(0,5,0)  x(0,13,0)  x(1,3,0)  x(1,5,0)  x(1,13,0) 
 x(2,3,0)  x(2,4,0)  x(2,13,0)  x(3,13,0)  x(4,13,0)  x(5,13,0)  x(6,0,0) 
 x(6,1,0)  x(6,2,0)  x(6,3,0)  x(6,4,0)  x(6,5,0)  x(6,9,0)  x(6,10,0) 
 x(6,11,0)  x(6,13,0)  x(7,0,0)  x(7,2,0)  x(7,3,0)  x(7,5,0)  x(7,9,0) 
 x(7,11,0)  x(7,13,0)  x(8,0,0)  x(8,1,0)  x(8,3,0)  x(8,4,0)  x(8,9,0) 
 x(8,10,0)  x(8,13,0)  x(9,0,0)  x(9,1,0)  x(9,2,0)  x(9,3,0)  x(9,4,0) 
 x(9,5,0)  x(9,13,0)  x(10,0,0)  x(10,3,0)  x(10,5,0)  x(10,13,0)  x(11,0,0) 
 x(11,3,0)  x(11,4,0)  x(11,13,0)  x(12,0,0)  x(12,1,0)  x(12,2,0)  x(12,3,0) 
 x(12,4,0)  x(12,5,0)  x(12,6,0)  x(12,7,0)  x(12,8,0)  x(12,9,0)  x(12,10,0) 
 x(12,11,0) 
End
